data/solutions/planning/wellformed/intermediate/weighting/wellformed_intermediate_instance48_gurobi.sol
Elapsed time: 456.99
Nodes explored: 607962
Nodes left: 392946
Relative gap: 0.008
Upper bound: 1367846555.0
Lower bound: 1367734032
C[0]=334034.0
C[1]=334034.0
C[2]=334016.0
C[3]=334013.0
C[4]=334005.0
C[5]=334001.0
C[6]=334000.0
C[7]=334000.0
C[8]=334000.0
C[9]=334000.0
C[10]=333980.0
C[11]=333923.0
y[0]=0
y[1]=3
y[2]=10
y[3]=0
y[4]=6
y[5]=2
y[6]=10
y[7]=7
y[8]=10
y[9]=11
y[10]=9
y[11]=1
y[12]=11
y[13]=8
y[14]=2
y[15]=5
y[16]=8
y[17]=10
y[18]=5
y[19]=4
y[20]=2
y[21]=1
y[22]=9
y[23]=2
y[24]=7
y[25]=11
y[26]=11
y[27]=8
y[28]=7
y[29]=10
y[30]=0
y[31]=2
y[32]=10
y[33]=8
y[34]=2
y[35]=10
y[36]=10
y[37]=10
y[38]=7
y[39]=7
y[40]=8
y[41]=1
y[42]=9
y[43]=2
y[44]=10
y[45]=9
y[46]=10
y[47]=1
y[48]=1
y[49]=3
y[50]=7
y[51]=6
y[52]=8
y[53]=1
y[54]=4
y[55]=10
y[56]=2
y[57]=3
y[58]=1
y[59]=3
y[60]=10
y[61]=2
y[62]=1
y[63]=10
y[64]=11
y[65]=11
y[66]=10
y[67]=6
y[68]=3
y[69]=5
y[70]=11
y[71]=4
y[72]=7
y[73]=10
y[74]=11
y[75]=3
y[76]=4
y[77]=10
y[78]=3
y[79]=3
y[80]=3
y[81]=1
y[82]=10
y[83]=4
y[84]=1
y[85]=8
y[86]=0
y[87]=2
y[88]=10
y[89]=10
y[90]=6
y[91]=10
y[92]=1
y[93]=5
y[94]=7
y[95]=2
y[96]=11
y[97]=4
y[98]=11
y[99]=11
y[100]=3
y[101]=5
y[102]=4
y[103]=11
y[104]=2
y[105]=4
y[106]=1
y[107]=3
y[108]=7
y[109]=8
y[110]=8
y[111]=4
y[112]=10
y[113]=2
y[114]=1
y[115]=1
y[116]=11
y[117]=3
y[118]=2
y[119]=7
y[120]=8
y[121]=7
y[122]=4
y[123]=8
y[124]=1
y[125]=1
y[126]=2
y[127]=11
y[128]=10
y[129]=9
y[130]=5
y[131]=5
y[132]=11
y[133]=3
y[134]=11
y[135]=7
y[136]=7
y[137]=7
y[138]=7
y[139]=9
y[140]=2
y[141]=6
y[142]=2
y[143]=2
y[144]=5
y[145]=7
y[146]=0
y[147]=1
y[148]=10
y[149]=2
y[150]=5
y[151]=2
y[152]=5
y[153]=4
y[154]=9
y[155]=0
y[156]=10
y[157]=11
y[158]=11
y[159]=10
y[160]=2
y[161]=3
y[162]=4
y[163]=9
y[164]=10
y[165]=1
y[166]=10
y[167]=9
y[168]=7
y[169]=2
y[170]=10
y[171]=3
y[172]=2
y[173]=10
y[174]=7
y[175]=6
y[176]=9
y[177]=3
y[178]=11
y[179]=1
y[180]=10
y[181]=1
y[182]=9
y[183]=3
y[184]=7
y[185]=11
y[186]=11
y[187]=6
y[188]=1
y[189]=0
y[190]=3
y[191]=3
y[192]=10
y[193]=10
y[194]=1
y[195]=11
y[196]=8
y[197]=5
y[198]=2
y[199]=0
y[200]=10
y[201]=11
y[202]=6
y[203]=10
y[204]=7
y[205]=7
y[206]=8
y[207]=7
y[208]=3
y[209]=9
y[210]=3
y[211]=0
y[212]=10
y[213]=8
y[214]=5
y[215]=2
y[216]=6
y[217]=10
y[218]=0
y[219]=3
y[220]=11
y[221]=4
y[222]=9
y[223]=4
y[224]=5
y[225]=11
y[226]=2
y[227]=10
y[228]=6
y[229]=1
y[230]=3
y[231]=10
y[232]=10
y[233]=4
y[234]=7
y[235]=3
y[236]=10
y[237]=8
y[238]=10
y[239]=6
y[240]=3
y[241]=4
y[242]=5
y[243]=9
y[244]=11
y[245]=11
y[246]=10
y[247]=7
y[248]=10
y[249]=3
y[250]=2
y[251]=5
y[252]=8
y[253]=1
y[254]=2
y[255]=2
y[256]=10
y[257]=9
y[258]=1
y[259]=4
y[260]=5
y[261]=0
y[262]=2
y[263]=0
y[264]=7
y[265]=6
y[266]=4
y[267]=7
y[268]=10
y[269]=8
y[270]=8
y[271]=11
y[272]=0
y[273]=2
y[274]=9
y[275]=1
y[276]=9
y[277]=1
y[278]=7
y[279]=10
y[280]=3
y[281]=4
y[282]=11
y[283]=10
y[284]=11
y[285]=4
y[286]=6
y[287]=5
y[288]=10
y[289]=1
y[290]=11
y[291]=11
y[292]=9
y[293]=1
y[294]=11
y[295]=1
y[296]=10
y[297]=10
y[298]=7
y[299]=5
y[300]=3
y[301]=2
y[302]=11
y[303]=7
y[304]=8
y[305]=1
y[306]=7
y[307]=2
y[308]=10
y[309]=0
y[310]=4
y[311]=11
y[312]=11
y[313]=5
y[314]=8
y[315]=0
y[316]=3
y[317]=1
y[318]=3
y[319]=6
y[320]=0
y[321]=8
y[322]=6
y[323]=9
y[324]=8
y[325]=4
y[326]=2
y[327]=2
y[328]=9
y[329]=11
y[330]=1
y[331]=10
y[332]=3
y[333]=9
y[334]=2
y[335]=8
y[336]=5
y[337]=10
y[338]=11
y[339]=4
y[340]=5
y[341]=2
y[342]=6
y[343]=0
y[344]=2
y[345]=6
y[346]=2
y[347]=6
y[348]=0
y[349]=9
y[350]=5
y[351]=5
y[352]=2
y[353]=2
y[354]=11
y[355]=3
y[356]=11
y[357]=10
y[358]=11
y[359]=4
y[360]=11
y[361]=2
y[362]=2
y[363]=4
y[364]=0
y[365]=0
y[366]=11
y[367]=4
y[368]=10
y[369]=1
y[370]=11
y[371]=11
y[372]=8
y[373]=4
y[374]=7
y[375]=10
y[376]=7
y[377]=7
y[378]=4
y[379]=11
y[380]=2
y[381]=3
y[382]=4
y[383]=2
y[384]=9
y[385]=6
y[386]=6
y[387]=1
y[388]=0
y[389]=10
y[390]=6
y[391]=11
y[392]=0
y[393]=5
y[394]=4
y[395]=0
y[396]=6
y[397]=7
y[398]=11
y[399]=11
