data/solutions/planning/wellformed/intermediate/weighting/wellformed_intermediate_instance48_gurobi.log

Gurobi 6.5.2 (linux64) logging started Sat Mar  3 06:34:54 2018

Changed value of parameter LogFile to data/solutions/planning/wellformed/intermediate/weighting/wellformed_intermediate_instance48_gurobi.log
   Prev: gurobi.log  Default: 
Changed value of parameter Threads to 1
   Prev: 0  Min: 0  Max: 1024  Default: 0
Optimize a model with 424 rows, 4813 columns and 9635 nonzeros
Coefficient statistics:
  Matrix range    [1e+00, 2e+04]
  Objective range [1e+00, 2e+03]
  Bounds range    [1e+00, 1e+00]
  RHS range       [1e+00, 1e+00]
Presolve removed 3 rows and 3 columns
Presolve time: 0.01s
Presolved: 421 rows, 4810 columns, 9630 nonzeros
Variable types: 0 continuous, 4810 integer (4800 binary)
Found heuristic solution: objective 8.208396e+09

Root relaxation: objective 1.367732e+09, 605 iterations, 0.01 seconds

    Nodes    |    Current Node    |     Objective Bounds      |     Work
 Expl Unexpl |  Obj  Depth IntInf | Incumbent    BestBd   Gap | It/Node Time

     0     0 1.3677e+09    0   28 8.2084e+09 1.3677e+09  83.3%     -    0s
H    0     0                    1.706937e+09 1.3677e+09  19.9%     -    0s
     0     0 1.3677e+09    0   42 1.7069e+09 1.3677e+09  19.9%     -    0s
     0     0 1.3677e+09    0   43 1.7069e+09 1.3677e+09  19.9%     -    0s
     0     0 1.3677e+09    0   45 1.7069e+09 1.3677e+09  19.9%     -    0s
     0     0 1.3677e+09    0   31 1.7069e+09 1.3677e+09  19.9%     -    0s
H    0     0                    1.376041e+09 1.3677e+09  0.60%     -    0s
     0     2 1.3677e+09    0   27 1.3760e+09 1.3677e+09  0.60%     -    0s
H 1583  1491                    1.375896e+09 1.3677e+09  0.59%   6.6    2s
H 1986  1583                    1.375895e+09 1.3677e+09  0.59%   7.1    4s
  2509  1932 1.3677e+09  527   16 1.3759e+09 1.3677e+09  0.59%   6.1    5s
H 2979  2158                    1.375651e+09 1.3677e+09  0.58%   5.9    6s
H 3624  2518                    1.375520e+09 1.3677e+09  0.57%   5.3    6s
H 4965  3197                    1.374777e+09 1.3677e+09  0.51%   5.5    8s
H 5502  3649                    1.374775e+09 1.3677e+09  0.51%   5.8    9s
  5916  4041 1.3677e+09  800   18 1.3748e+09 1.3677e+09  0.51%   5.7   10s
H 5958  4035                    1.373719e+09 1.3677e+09  0.44%   5.6   10s
H 6951  4944                    1.373491e+09 1.3677e+09  0.42%   5.6   11s
H 8937  6654                    1.373458e+09 1.3677e+09  0.42%   5.2   12s
H 9564  7277                    1.373448e+09 1.3677e+09  0.42%   5.1   13s
 10532  8243 1.3677e+09 1036   14 1.3734e+09 1.3677e+09  0.42%   5.2   15s
 16573 13787 1.3678e+09 1153   18 1.3734e+09 1.3677e+09  0.42%   5.1   20s
H16723 13930                    1.373412e+09 1.3677e+09  0.41%   5.2   20s
H19427 15918                    1.373023e+09 1.3677e+09  0.39%   5.2   22s
H20072 16552                    1.373016e+09 1.3677e+09  0.38%   5.3   23s
 21784 17944 1.3677e+09  921   14 1.3730e+09 1.3677e+09  0.38%   5.3   25s
H24274 20370                    1.373008e+09 1.3677e+09  0.38%   5.4   27s
H25143 21042                    1.373005e+09 1.3677e+09  0.38%   5.4   29s
H25423 21322                    1.372977e+09 1.3677e+09  0.38%   5.4   29s
 26041 21942 1.3680e+09  734   15 1.3730e+09 1.3677e+09  0.38%   5.5   30s
H27146 23045                    1.372975e+09 1.3677e+09  0.38%   5.8   31s
H30092 25842                    1.372905e+09 1.3677e+09  0.38%   6.0   34s
 30470 26222 1.3678e+09 1368   18 1.3729e+09 1.3677e+09  0.38%   6.0   35s
H31364 27093                    1.372903e+09 1.3677e+09  0.38%   6.0   35s
H33659 29275                    1.372481e+09 1.3677e+09  0.35%   6.1   38s
H33661 29151                    1.371861e+09 1.3677e+09  0.30%   6.1   38s
 35223 30669 1.3679e+09  953   18 1.3719e+09 1.3677e+09  0.30%   6.2   40s
H35503 30946                    1.371860e+09 1.3677e+09  0.30%   6.3   40s
H38536 33806                    1.371854e+09 1.3677e+09  0.30%   6.4   43s
H39334 34547                    1.371853e+09 1.3677e+09  0.30%   6.5   44s
 39490 34705 1.3678e+09 1403   18 1.3719e+09 1.3677e+09  0.30%   6.5   45s
H39506 34687                    1.371619e+09 1.3677e+09  0.28%   6.5   45s
H40078 35132                    1.371009e+09 1.3677e+09  0.24%   6.5   45s
H42782 36008                    1.370784e+09 1.3677e+09  0.22%   6.4   48s
 44141 37253 1.3683e+09  752   19 1.3708e+09 1.3677e+09  0.22%   6.5   50s
H45427 38472                    1.370591e+09 1.3677e+09  0.21%   6.6   51s
 48901 41892 1.3683e+09  980   14 1.3706e+09 1.3677e+09  0.21%   6.5   55s
H50498 43245                    1.370531e+09 1.3677e+09  0.20%   6.5   56s
 53075 45602 1.3677e+09 1461   16 1.3705e+09 1.3677e+09  0.20%   6.6   60s
H57355 49687                    1.370523e+09 1.3677e+09  0.20%   6.6   64s
 58302 50595 1.3680e+09 1274   18 1.3705e+09 1.3677e+09  0.20%   6.6   65s
H60640 52884                    1.370522e+09 1.3677e+09  0.20%   6.5   67s
H62643 54670                    1.370522e+09 1.3677e+09  0.20%   6.6   69s
 62781 54810 1.3679e+09  987   18 1.3705e+09 1.3677e+09  0.20%   6.6   70s
 67203 58981 1.3677e+09 1172   15 1.3705e+09 1.3677e+09  0.20%   6.6   75s
H70983 62137                    1.370433e+09 1.3677e+09  0.20%   6.7   79s
 71336 62420 1.3692e+09 1259   14 1.3704e+09 1.3677e+09  0.20%   6.7   80s
H74000 63300                    1.368720e+09 1.3677e+09  0.07%   6.6   82s
*74006 63300            1483    1.368715e+09 1.3677e+09  0.07%   6.6   82s
*74037 63307            1487    1.368711e+09 1.3677e+09  0.07%   6.6   82s
H75063 63518                    1.368401e+09 1.3677e+09  0.05%   6.6   83s
H76050 64398                    1.368399e+09 1.3677e+09  0.05%   6.6   83s
H76467 64632                    1.368398e+09 1.3677e+09  0.05%   6.6   84s
H77346 64177                    1.368387e+09 1.3677e+09  0.05%   6.6   84s
 77598 64378 1.3677e+09 1293   15 1.3684e+09 1.3677e+09  0.05%   6.6   85s
H78383 65005                    1.368387e+09 1.3677e+09  0.05%   6.6   85s
*78529 61621            1451    1.368333e+09 1.3677e+09  0.04%   6.6   85s
H79347 62243                    1.368333e+09 1.3677e+09  0.04%   6.6   86s
H79630 60004                    1.368247e+09 1.3677e+09  0.04%   6.6   86s
H79734 56213                    1.368048e+09 1.3677e+09  0.02%   6.6   87s
H80018 56436                    1.368048e+09 1.3677e+09  0.02%   6.6   87s
H82022 57960                    1.368046e+09 1.3677e+09  0.02%   6.6   89s
 82709 58501 1.3677e+09 1039   18 1.3680e+09 1.3677e+09  0.02%   6.6   90s
 89584 64074 1.3677e+09 1086   17 1.3680e+09 1.3677e+09  0.02%   6.4   95s
 94761 68493 1.3679e+09 1128   20 1.3680e+09 1.3677e+09  0.02%   6.3  100s
H94971 68669                    1.368046e+09 1.3677e+09  0.02%   6.3  100s
 101455 74393 1.3677e+09  982   14 1.3680e+09 1.3677e+09  0.02%   6.2  105s
 107961 79283 1.3677e+09 1285   15 1.3680e+09 1.3677e+09  0.02%   6.1  110s
 114624 84924 1.3677e+09 1037   15 1.3680e+09 1.3677e+09  0.02%   5.9  115s
 121396 90855 1.3677e+09 1015   13 1.3680e+09 1.3677e+09  0.02%   5.8  120s
*127860 95518            1435    1.368042e+09 1.3677e+09  0.02%   5.8  124s
*127880 95520            1442    1.368042e+09 1.3677e+09  0.02%   5.8  124s
 128113 95737 1.3677e+09 1199   17 1.3680e+09 1.3677e+09  0.02%   5.8  125s
 135503 101654 1.3678e+09 1399   24 1.3680e+09 1.3677e+09  0.02%   5.7  130s
H139559 105074                    1.368042e+09 1.3677e+09  0.02%   5.6  133s
H140617 105987                    1.368041e+09 1.3677e+09  0.02%   5.6  134s
 141777 107042 1.3680e+09 1538   16 1.3680e+09 1.3677e+09  0.02%   5.6  135s
 148520 112430 1.3678e+09 1290   20 1.3680e+09 1.3677e+09  0.02%   5.5  140s
 155796 118539     cutoff 1151      1.3680e+09 1.3677e+09  0.02%   5.4  145s
 161761 123343 1.3678e+09 1091   14 1.3680e+09 1.3677e+09  0.02%   5.3  150s
 168974 129783 1.3677e+09 1250   17 1.3680e+09 1.3677e+09  0.02%   5.2  155s
 174867 134936 1.3677e+09 1186   19 1.3680e+09 1.3677e+09  0.02%   5.2  160s
 183448 142364 1.3677e+09 1080   16 1.3680e+09 1.3677e+09  0.02%   5.1  165s
 191090 148861 1.3677e+09 1098   15 1.3680e+09 1.3677e+09  0.02%   5.0  170s
 197601 154555 1.3677e+09 1212   16 1.3680e+09 1.3677e+09  0.02%   5.0  175s
 204025 159684 1.3677e+09 1171   15 1.3680e+09 1.3677e+09  0.02%   4.9  180s
H210868 165160                    1.368041e+09 1.3677e+09  0.02%   4.8  184s
 210870 165164 1.3679e+09 1190   23 1.3680e+09 1.3677e+09  0.02%   4.8  185s
 217678 170580 1.3679e+09 1341   18 1.3680e+09 1.3677e+09  0.02%   4.8  190s
 225996 177604 1.3680e+09 1105   13 1.3680e+09 1.3677e+09  0.02%   4.7  195s
 234347 185117 1.3678e+09 1423   19 1.3680e+09 1.3677e+09  0.02%   4.7  200s
 242040 191955 1.3679e+09 1224   16 1.3680e+09 1.3677e+09  0.02%   4.6  205s
 249049 197599 1.3677e+09 1006   15 1.3680e+09 1.3677e+09  0.02%   4.6  210s
 257053 204443 1.3678e+09 1432   16 1.3680e+09 1.3677e+09  0.02%   4.5  215s
 263793 209989 1.3677e+09 1026   13 1.3680e+09 1.3677e+09  0.02%   4.5  220s
 271548 216325 1.3677e+09 1239   18 1.3680e+09 1.3677e+09  0.02%   4.4  225s
 280008 223423 1.3678e+09 1578   11 1.3680e+09 1.3677e+09  0.02%   4.4  230s
 286651 228097 1.3680e+09 1303   14 1.3680e+09 1.3677e+09  0.02%   4.4  235s
 290434 230546 1.3677e+09 1273   17 1.3680e+09 1.3677e+09  0.02%   4.4  240s
*293052 223070            1534    1.368023e+09 1.3677e+09  0.02%   4.4  242s
*293057 220160            1533    1.368009e+09 1.3677e+09  0.02%   4.4  242s
*293338 214446            1420    1.367975e+09 1.3677e+09  0.02%   4.4  242s
H293413 214508                    1.367975e+09 1.3677e+09  0.02%   4.4  243s
H294251 214921                    1.367975e+09 1.3677e+09  0.02%   4.4  243s
H295331 215169                    1.367974e+09 1.3677e+09  0.02%   4.4  244s
 295365 215189 1.3678e+09 1381   14 1.3680e+09 1.3677e+09  0.02%   4.4  245s
 299997 218439     cutoff 1238      1.3680e+09 1.3677e+09  0.02%   4.3  250s
H300857 219174                    1.367974e+09 1.3677e+09  0.02%   4.3  250s
 305695 223484 1.3677e+09 1084   14 1.3680e+09 1.3677e+09  0.02%   4.3  255s
 311759 228500 infeasible 1427      1.3680e+09 1.3677e+09  0.02%   4.3  260s
H311769 228490                    1.367974e+09 1.3677e+09  0.02%   4.3  260s
 317365 233353 1.3677e+09 1164   15 1.3680e+09 1.3677e+09  0.02%   4.3  265s
 323173 237965 1.3677e+09 1219   15 1.3680e+09 1.3677e+09  0.02%   4.2  270s
 328134 241746 1.3677e+09 1218   15 1.3680e+09 1.3677e+09  0.02%   4.2  275s
H332266 245156                    1.367974e+09 1.3677e+09  0.02%   4.2  278s
 334149 246791 1.3677e+09 1201   16 1.3680e+09 1.3677e+09  0.02%   4.2  280s
 339571 251156 1.3678e+09 1215   12 1.3680e+09 1.3677e+09  0.02%   4.2  285s
*343748 242356            1241    1.367923e+09 1.3677e+09  0.01%   4.1  289s
 343870 242374 infeasible 1270      1.3679e+09 1.3677e+09  0.01%   4.1  290s
 352318 249295 1.3677e+09 1099   15 1.3679e+09 1.3677e+09  0.01%   4.1  295s
 363009 258170 1.3677e+09 1281   15 1.3679e+09 1.3677e+09  0.01%   4.1  300s
 374177 267188 1.3677e+09 1365   19 1.3679e+09 1.3677e+09  0.01%   4.1  305s
 384436 274960 1.3677e+09 1349   14 1.3679e+09 1.3677e+09  0.01%   4.0  310s
 394932 283348 1.3677e+09 1382   13 1.3679e+09 1.3677e+09  0.01%   4.0  315s
 405897 292360 1.3677e+09 1259   11 1.3679e+09 1.3677e+09  0.01%   4.0  320s
 416792 301217 infeasible 1554      1.3679e+09 1.3677e+09  0.01%   4.0  325s
 426983 308617 1.3677e+09 1455   17 1.3679e+09 1.3677e+09  0.01%   4.0  330s
 435471 314924 1.3678e+09 1479   16 1.3679e+09 1.3677e+09  0.01%   4.0  335s
 442111 320187 1.3679e+09 1317   17 1.3679e+09 1.3677e+09  0.01%   4.0  340s
 447849 324542 1.3678e+09 1501   10 1.3679e+09 1.3677e+09  0.01%   4.0  345s
 455345 330633 infeasible 1342      1.3679e+09 1.3677e+09  0.01%   3.9  350s
 462973 336679 1.3678e+09 1561   14 1.3679e+09 1.3677e+09  0.01%   3.9  355s
 469459 341712 1.3677e+09 1281   13 1.3679e+09 1.3677e+09  0.01%   3.9  360s
 477370 348086 1.3677e+09 1322   19 1.3679e+09 1.3677e+09  0.01%   3.9  365s
 484934 354184 1.3677e+09 1296   15 1.3679e+09 1.3677e+09  0.01%   3.9  370s
 492382 359883 1.3677e+09 1334   15 1.3679e+09 1.3677e+09  0.01%   3.9  375s
 500186 366282 1.3677e+09 1309   12 1.3679e+09 1.3677e+09  0.01%   3.9  380s
 507310 371912 1.3677e+09 1502   20 1.3679e+09 1.3677e+09  0.01%   3.9  385s
*514639 376289            1391    1.367921e+09 1.3677e+09  0.01%   3.9  390s
 521325 381185 1.3677e+09 1308   10 1.3679e+09 1.3677e+09  0.01%   3.9  395s
 528241 386437 1.3677e+09 1357   14 1.3679e+09 1.3677e+09  0.01%   3.9  400s
 535617 391699 1.3677e+09 1361   16 1.3679e+09 1.3677e+09  0.01%   3.8  405s
 542778 396889 1.3677e+09 1441   17 1.3679e+09 1.3677e+09  0.01%   3.8  410s
 549686 401594 infeasible 1529      1.3679e+09 1.3677e+09  0.01%   3.9  415s
 556848 404130 1.3677e+09 1453   11 1.3679e+09 1.3677e+09  0.01%   3.9  420s
 564644 406649 1.3677e+09 1474   16 1.3679e+09 1.3677e+09  0.01%   3.9  425s
 570651 409659 1.3677e+09 1455   14 1.3679e+09 1.3677e+09  0.01%   3.9  430s
 577574 412323 infeasible 1546      1.3679e+09 1.3677e+09  0.01%   3.9  435s
 584527 415404     cutoff 1529      1.3679e+09 1.3677e+09  0.01%   3.9  440s
 591725 418030 1.3677e+09 1552   16 1.3679e+09 1.3677e+09  0.01%   3.9  445s
 598850 420793 1.3677e+09 1520   14 1.3679e+09 1.3677e+09  0.01%   4.0  450s
 606009 423717 1.3677e+09 1448   12 1.3679e+09 1.3677e+09  0.01%   4.0  455s
*607962 392946            1530    1.367847e+09 1.3677e+09  0.01%   4.0  456s

Cutting planes:
  Gomory: 1
  Flow cover: 6

Explored 607963 nodes (2422083 simplex iterations) in 456.43 seconds
Thread count was 1 (of 8 available processors)

Optimal solution found (tolerance 1.00e-04)
Best objective 1.367846555000e+09, best bound 1.367734032000e+09, gap 0.0082%
